(set-logic QF_LRA)
(declare-fun X0 () Real )
(declare-fun Y0 () Real )
(declare-fun X1 () Real )
(declare-fun Y1 () Real )
(declare-fun X2 () Real )
(declare-fun Y2 () Real )
(declare-fun X3 () Real )
(declare-fun Y3 () Real )
(declare-fun X4 () Real )
(declare-fun Y4 () Real )
(declare-fun X5 () Real )
(declare-fun Y5 () Real )
(declare-fun X6 () Real )
(declare-fun Y6 () Real )
(declare-fun X7 () Real )
(declare-fun Y7 () Real )
(declare-fun X8 () Real )
(declare-fun Y8 () Real )
(declare-fun Z () Real )
(assert ( and  
( or ( <= ( + X0 35 ) X1 )  ( <= ( + X1 86 ) X0 )  ( <= ( + Y0 14 ) Y1 )  ( <= ( + Y1 64 ) Y0 )  )
( or ( <= ( + X0 35 ) X2 )  ( <= ( + X2 27 ) X0 )  ( <= ( + Y0 14 ) Y2 )  ( <= ( + Y2 17 ) Y0 )  )
( or ( <= ( + X0 35 ) X3 )  ( <= ( + X3 13 ) X0 )  ( <= ( + Y0 14 ) Y3 )  ( <= ( + Y3 73 ) Y0 )  )
( or ( <= ( + X0 35 ) X4 )  ( <= ( + X4 100 ) X0 )  ( <= ( + Y0 14 ) Y4 )  ( <= ( + Y4 35 ) Y0 )  )
( or ( <= ( + X0 35 ) X5 )  ( <= ( + X5 4 ) X0 )  ( <= ( + Y0 14 ) Y5 )  ( <= ( + Y5 33 ) Y0 )  )
( or ( <= ( + X0 35 ) X6 )  ( <= ( + X6 91 ) X0 )  ( <= ( + Y0 14 ) Y6 )  ( <= ( + Y6 61 ) Y0 )  )
( or ( <= ( + X0 35 ) X7 )  ( <= ( + X7 10 ) X0 )  ( <= ( + Y0 14 ) Y7 )  ( <= ( + Y7 13 ) Y0 )  )
( or ( <= ( + X0 35 ) X8 )  ( <= ( + X8 12 ) X0 )  ( <= ( + Y0 14 ) Y8 )  ( <= ( + Y8 9 ) Y0 )  )
( or ( <= ( + X1 86 ) X2 )  ( <= ( + X2 27 ) X1 )  ( <= ( + Y1 64 ) Y2 )  ( <= ( + Y2 17 ) Y1 )  )
( or ( <= ( + X1 86 ) X3 )  ( <= ( + X3 13 ) X1 )  ( <= ( + Y1 64 ) Y3 )  ( <= ( + Y3 73 ) Y1 )  )
( or ( <= ( + X1 86 ) X4 )  ( <= ( + X4 100 ) X1 )  ( <= ( + Y1 64 ) Y4 )  ( <= ( + Y4 35 ) Y1 )  )
( or ( <= ( + X1 86 ) X5 )  ( <= ( + X5 4 ) X1 )  ( <= ( + Y1 64 ) Y5 )  ( <= ( + Y5 33 ) Y1 )  )
( or ( <= ( + X1 86 ) X6 )  ( <= ( + X6 91 ) X1 )  ( <= ( + Y1 64 ) Y6 )  ( <= ( + Y6 61 ) Y1 )  )
( or ( <= ( + X1 86 ) X7 )  ( <= ( + X7 10 ) X1 )  ( <= ( + Y1 64 ) Y7 )  ( <= ( + Y7 13 ) Y1 )  )
( or ( <= ( + X1 86 ) X8 )  ( <= ( + X8 12 ) X1 )  ( <= ( + Y1 64 ) Y8 )  ( <= ( + Y8 9 ) Y1 )  )
( or ( <= ( + X2 27 ) X3 )  ( <= ( + X3 13 ) X2 )  ( <= ( + Y2 17 ) Y3 )  ( <= ( + Y3 73 ) Y2 )  )
( or ( <= ( + X2 27 ) X4 )  ( <= ( + X4 100 ) X2 )  ( <= ( + Y2 17 ) Y4 )  ( <= ( + Y4 35 ) Y2 )  )
( or ( <= ( + X2 27 ) X5 )  ( <= ( + X5 4 ) X2 )  ( <= ( + Y2 17 ) Y5 )  ( <= ( + Y5 33 ) Y2 )  )
( or ( <= ( + X2 27 ) X6 )  ( <= ( + X6 91 ) X2 )  ( <= ( + Y2 17 ) Y6 )  ( <= ( + Y6 61 ) Y2 )  )
( or ( <= ( + X2 27 ) X7 )  ( <= ( + X7 10 ) X2 )  ( <= ( + Y2 17 ) Y7 )  ( <= ( + Y7 13 ) Y2 )  )
( or ( <= ( + X2 27 ) X8 )  ( <= ( + X8 12 ) X2 )  ( <= ( + Y2 17 ) Y8 )  ( <= ( + Y8 9 ) Y2 )  )
( or ( <= ( + X3 13 ) X4 )  ( <= ( + X4 100 ) X3 )  ( <= ( + Y3 73 ) Y4 )  ( <= ( + Y4 35 ) Y3 )  )
( or ( <= ( + X3 13 ) X5 )  ( <= ( + X5 4 ) X3 )  ( <= ( + Y3 73 ) Y5 )  ( <= ( + Y5 33 ) Y3 )  )
( or ( <= ( + X3 13 ) X6 )  ( <= ( + X6 91 ) X3 )  ( <= ( + Y3 73 ) Y6 )  ( <= ( + Y6 61 ) Y3 )  )
( or ( <= ( + X3 13 ) X7 )  ( <= ( + X7 10 ) X3 )  ( <= ( + Y3 73 ) Y7 )  ( <= ( + Y7 13 ) Y3 )  )
( or ( <= ( + X3 13 ) X8 )  ( <= ( + X8 12 ) X3 )  ( <= ( + Y3 73 ) Y8 )  ( <= ( + Y8 9 ) Y3 )  )
( or ( <= ( + X4 100 ) X5 )  ( <= ( + X5 4 ) X4 )  ( <= ( + Y4 35 ) Y5 )  ( <= ( + Y5 33 ) Y4 )  )
( or ( <= ( + X4 100 ) X6 )  ( <= ( + X6 91 ) X4 )  ( <= ( + Y4 35 ) Y6 )  ( <= ( + Y6 61 ) Y4 )  )
( or ( <= ( + X4 100 ) X7 )  ( <= ( + X7 10 ) X4 )  ( <= ( + Y4 35 ) Y7 )  ( <= ( + Y7 13 ) Y4 )  )
( or ( <= ( + X4 100 ) X8 )  ( <= ( + X8 12 ) X4 )  ( <= ( + Y4 35 ) Y8 )  ( <= ( + Y8 9 ) Y4 )  )
( or ( <= ( + X5 4 ) X6 )  ( <= ( + X6 91 ) X5 )  ( <= ( + Y5 33 ) Y6 )  ( <= ( + Y6 61 ) Y5 )  )
( or ( <= ( + X5 4 ) X7 )  ( <= ( + X7 10 ) X5 )  ( <= ( + Y5 33 ) Y7 )  ( <= ( + Y7 13 ) Y5 )  )
( or ( <= ( + X5 4 ) X8 )  ( <= ( + X8 12 ) X5 )  ( <= ( + Y5 33 ) Y8 )  ( <= ( + Y8 9 ) Y5 )  )
( or ( <= ( + X6 91 ) X7 )  ( <= ( + X7 10 ) X6 )  ( <= ( + Y6 61 ) Y7 )  ( <= ( + Y7 13 ) Y6 )  )
( or ( <= ( + X6 91 ) X8 )  ( <= ( + X8 12 ) X6 )  ( <= ( + Y6 61 ) Y8 )  ( <= ( + Y8 9 ) Y6 )  )
( or ( <= ( + X7 10 ) X8 )  ( <= ( + X8 12 ) X7 )  ( <= ( + Y7 13 ) Y8 )  ( <= ( + Y8 9 ) Y7 )  )
( >= X0 0)
( <= ( + X0 35) Z)
( >= Y0 0)
( <= ( + Y0 14 ) 100)
( >= X1 0)
( <= ( + X1 86) Z)
( >= Y1 0)
( <= ( + Y1 64 ) 100)
( >= X2 0)
( <= ( + X2 27) Z)
( >= Y2 0)
( <= ( + Y2 17 ) 100)
( >= X3 0)
( <= ( + X3 13) Z)
( >= Y3 0)
( <= ( + Y3 73 ) 100)
( >= X4 0)
( <= ( + X4 100) Z)
( >= Y4 0)
( <= ( + Y4 35 ) 100)
( >= X5 0)
( <= ( + X5 4) Z)
( >= Y5 0)
( <= ( + Y5 33 ) 100)
( >= X6 0)
( <= ( + X6 91) Z)
( >= Y6 0)
( <= ( + Y6 61 ) 100)
( >= X7 0)
( <= ( + X7 10) Z)
( >= Y7 0)
( <= ( + Y7 13 ) 100)
( >= X8 0)
( <= ( + X8 12) Z)
( >= Y8 0)
( <= ( + Y8 9 ) 100)
) )
(minimize Z)
(check-sat)
